results_rootrelaxation/bin018_060_007.srr.sol
solution status: optimal solution found
objective value:                                    0
_var2693_                           0.105141693692392 	(obj:0)
_var2712_                           0.151713073142019 	(obj:0)
_var2761_                           0.263426636868968 	(obj:0)
_var2766_                           0.215861578668724 	(obj:0)
_var2786_                            0.13856795511976 	(obj:0)
_var2787_                           0.183878568370652 	(obj:0)
_var2789_                          0.0918382392772912 	(obj:0)
_var2796_                          0.0882470352641285 	(obj:0)
_var2812_                          0.0849209033858686 	(obj:0)
_var2813_                           0.224332562321471 	(obj:0)
_var2816_                          0.0550438217123279 	(obj:0)
_var2851_                          0.0653566587252595 	(obj:0)
_var2854_                           0.321873027640464 	(obj:0)
_var2857_                            0.17358424803888 	(obj:0)
_var2859_                           0.209503458907178 	(obj:0)
_var2863_                           0.136074652606781 	(obj:0)
_var2867_                          0.0900962916833865 	(obj:0)
_var2875_                           0.072827223170322 	(obj:0)
_var2879_                            0.13485479988006 	(obj:0)
_var2881_                          0.0151270759927622 	(obj:0)
_var2882_                          0.0522664348413217 	(obj:0)
_var2892_                           0.118292065605889 	(obj:0)
_var2895_                          0.0444688157266916 	(obj:0)
_var2896_                           0.160777277861877 	(obj:0)
_var2901_                          0.0626715376623573 	(obj:0)
_var2907_                          0.0702296832515957 	(obj:0)
_var2916_                           0.153370555355284 	(obj:0)
_var2919_                          0.0682994567876024 	(obj:0)
_var2930_                          0.0784148027915127 	(obj:0)
_var2934_                          0.0944223168607289 	(obj:0)
_var2940_                           0.148498170821792 	(obj:0)
_var2941_                           0.156674293907607 	(obj:0)
_var2946_                          0.0310275593706068 	(obj:0)
_var2947_                          0.0327007335672885 	(obj:0)
_var2951_                           0.231500047546772 	(obj:0)
_var2953_                            0.20562794208381 	(obj:0)
_var2957_                           0.138842547921943 	(obj:0)
_var2958_                           0.202022360638191 	(obj:0)
_var2959_                           0.104515958936288 	(obj:0)
_var2965_                          0.0584574168803092 	(obj:0)
_var2967_                          0.0494762870461594 	(obj:0)
_var2970_                           0.124574540223663 	(obj:0)
_var2975_                         0.00327802059153927 	(obj:0)
_var2976_                          0.0469650689215189 	(obj:0)
_var2977_                           0.112991887530262 	(obj:0)
_var2982_                          0.0606437987173187 	(obj:0)
_var2988_                           0.113408196046696 	(obj:0)
_var2989_                           0.270685648524372 	(obj:0)
_var2994_                           0.263363539470651 	(obj:0)
_var2997_                          0.0457379055605683 	(obj:0)
_var3001_                          0.0620024625129885 	(obj:0)
_var3010_                           0.218400510809844 	(obj:0)
_var3013_                           0.158016866945434 	(obj:0)
_var3014_                           0.252018944018446 	(obj:0)
_var3015_                         0.00208740930330568 	(obj:0)
_var3017_                            0.16073725630251 	(obj:0)
_var3018_                          0.0557391438338262 	(obj:0)
_var3021_                           0.291490667700509 	(obj:0)
_var3023_                           0.244790970442187 	(obj:0)
_var3026_                          0.0100367202213235 	(obj:0)
_var3029_                           0.305202233800181 	(obj:0)
_var3030_                          0.0257200597109671 	(obj:0)
_var3036_                           0.150554633486699 	(obj:0)
_var3037_                            0.30557127209283 	(obj:0)
_var3039_                           0.368019743646042 	(obj:0)
_var3041_                          0.0350803968118627 	(obj:0)
_var3042_                           0.115676595744692 	(obj:0)
_var3047_                           0.390288623665789 	(obj:0)
_var3048_                           0.133670167385959 	(obj:0)
_var3050_                          0.0381609138608281 	(obj:0)
_var3051_                          0.0475591999090618 	(obj:0)
_var3052_                           0.153573647688753 	(obj:0)
_var3053_                           0.295308943613057 	(obj:0)
_var3057_                          0.0326087329926087 	(obj:0)
_var3059_                          0.0438217308107638 	(obj:0)
_var3060_                           0.258590456463585 	(obj:0)
_var3061_                          0.0428353076668999 	(obj:0)
_var3062_                           0.271463506071171 	(obj:0)
_var3063_                           0.165193124755079 	(obj:0)
_var3064_                           0.073912049281752 	(obj:0)
_var3065_                           0.227717157352766 	(obj:0)
_var3066_                          0.0199625166850656 	(obj:0)
_var3069_                           0.015848210195477 	(obj:0)
_var3071_                          0.0148283503172098 	(obj:0)
_var3074_                           0.234144186907537 	(obj:0)
_var3075_                          0.0618758408957146 	(obj:0)
_var3076_                          0.0370162628960718 	(obj:0)
_var3077_                          0.0932996055093505 	(obj:0)
_var3078_                           0.163609625960479 	(obj:0)
_var3083_                           0.288877600965521 	(obj:0)
_var3085_                           0.113569170999649 	(obj:0)
_var3086_                            0.05670448788454 	(obj:0)
_var3088_                           0.177462709267739 	(obj:0)
_var3089_                         0.00173729185727131 	(obj:0)
_var3090_                           0.248823285206764 	(obj:0)
_var3091_                           0.084875275065153 	(obj:0)
_var3092_                          0.0514509894192019 	(obj:0)
_var3093_                           0.142054270753331 	(obj:0)
_var3095_                           0.126527492093456 	(obj:0)
_var3096_                           0.137718187400951 	(obj:0)
_var3099_                          0.0431864623796001 	(obj:0)
_var3102_                           0.130310422429185 	(obj:0)
_var3103_                          0.0439390865954828 	(obj:0)
_var3108_                          0.0109387143045606 	(obj:0)
_var3109_                            0.23839458648948 	(obj:0)
_var3111_                          0.0094321596772805 	(obj:0)
_var3113_                          0.0228638819907295 	(obj:0)
_var3115_                           0.178050925982643 	(obj:0)
_var3116_                            0.11489082916783 	(obj:0)
_var3119_                          0.0987840124968359 	(obj:0)
_var3121_                          0.0799155238483753 	(obj:0)
_var3122_                          0.0572222560020351 	(obj:0)
_var3125_                           0.039719313702692 	(obj:0)
_var3126_                          0.0674488393613076 	(obj:0)
_var3127_                           0.087898538347381 	(obj:0)
_var3128_                           0.051852476491694 	(obj:0)
_var3131_                           0.235133283134138 	(obj:0)
_var3134_                           0.117269628687206 	(obj:0)
_var3135_                           0.121781271255023 	(obj:0)
_var3136_                          0.0149680446853912 	(obj:0)
_var3137_                          0.0809122596651594 	(obj:0)
_var3138_                          0.0426449730179292 	(obj:0)
_var3139_                           0.147624200609951 	(obj:0)
_var3141_                            0.20826575964044 	(obj:0)
_var3142_                          0.0822371580608892 	(obj:0)
_var3144_                          0.0722789175995909 	(obj:0)
_var3148_                          0.0849678994034244 	(obj:0)
_var3149_                           0.141053130657368 	(obj:0)
_var3150_                          0.0258571438881026 	(obj:0)
_var3151_                           0.101032670453084 	(obj:0)
_var3152_                          0.0347143904381448 	(obj:0)
_var3153_                           0.106365219599007 	(obj:0)
_var3155_                           0.105653561626439 	(obj:0)
_var3156_                          0.0339081035908387 	(obj:0)
_var3157_                          0.0270518639531636 	(obj:0)
_var3158_                          0.0543965810258269 	(obj:0)
_var3160_                           0.078530829627599 	(obj:0)
_var3161_                          0.0300343967337825 	(obj:0)
_var3162_                           0.112423596159451 	(obj:0)
_var3166_                          0.0329583437560469 	(obj:0)
_var3167_                          0.0814250151494308 	(obj:0)
_var3168_                          0.0640225598050804 	(obj:0)
_var3169_                          0.0966783222943671 	(obj:0)
_var3171_                           0.124454351238989 	(obj:0)
_var3175_                         0.00708643443423167 	(obj:0)
_var3177_                         0.00677753463460785 	(obj:0)
_var3179_                          0.0321606270883797 	(obj:0)
_var3180_                          0.0317235482953415 	(obj:0)
_var3181_                         0.000479708760023286 	(obj:0)
_var3190_                          0.0555714570613253 	(obj:0)
